10372.38,58.64,72.74
10885.12,55.88,69.31
10410.07,58.43,72.48
9511.17,63.95,79.33
10502.35,57.91,71.84
10662.84,57.04,70.76
10149.73,59.92,74.34
10580.09,57.49,71.31
11364.88,53.52,66.39
10012.75,60.74,75.35
10885.19,55.88,69.31
10917.27,55.71,69.11
10959.9,55.49,68.84
9828.99,61.88,76.76
10489.55,57.98,71.93
10012.17,60.75,75.36
10685.33,56.92,70.61
10940.94,55.59,68.96
11922.75,51.01,63.28
10274.18,59.2,73.44
